c User generated cnf file
p cnf 14 69
6 14 -2 0 
9 1 -11 0 
12 12 -13 0 
1 2 -6 0 
5 -3 9 0 
7 11 -2 0 
3 -6 13 0 
8 -12 5 0 
12 -4 5 0 
1 -4 12 0 
8 -5 2 0 
8 -14 9 0 
7 2 -2 0 
9 3 -7 0 
11 11 -5 0 
14 -13 13 0 
5 1 -9 0 
3 -10 4 0 
6 9 -4 0 
9 8 -5 0 
1 -12 2 0 
11 -13 6 0 
11 -4 9 0 
10 8 -10 0 
13 -6 13 0 
8 -13 14 0 
7 -4 11 0 
6 -1 6 0 
5 -3 3 0 
12 6 -9 0 
9 12 -14 0 
8 -5 10 0 
8 -6 8 0 
6 -7 12 0 
10 -7 13 0 
11 8 -14 0 
14 -6 5 0 
13 11 -3 0 
6 -5 9 0 
1 10 -4 0 
7 3 -2 0 
14 -14 3 0 
9 3 -6 0 
12 -6 9 0 
2 -13 10 0 
10 14 -6 0 
5 -3 10 0 
11 -6 3 0 
14 9 -8 0 
2 1 -3 0 
8 -6 13 0 
2 3 -8 0 
1 -11 6 0 
11 -5 4 0 
2 10 -13 0 
14 -3 5 0 
6 2 -5 0 
5 14 -10 0 
4 -3 1 0 
13 2 -12 0 
12 -6 6 0 
4 -6 11 0 
7 -6 8 0 
12 7 -9 0 
2 1 -6 0 
1 -2 14 0 
4 5 -12 0 
10 14 -2 0 
7 -10 14 0 
